CUSTOMERS : 10
VEHICLES : 8
0 135 238 59 169 288 120 208 128 210 281 
135 0 141 155 281 397 238 277 64 333 378 
238 141 0 224 325 423 357 275 204 389 390 
59 155 224 0 126 244 159 150 170 179 231 
169 281 325 126 0 119 201 101 294 66 116 
288 397 423 244 119 0 300 153 412 98 48 
120 238 357 159 201 300 0 280 204 204 312 
208 277 275 150 101 153 280 0 311 158 116 
128 64 204 170 294 412 204 311 0 337 401 
210 333 389 179 66 98 204 158 337 0 121 
281 378 390 231 116 48 312 116 401 121 0 
